c   #vars: 122   #clauses: 554   #literals: 1512
c 
p cnf 122 554
-1 -2 0
-3 -4 0
-5 -6 0
12 21 22 -117 0
-8 -9 0
-10 -11 0
1 2 29 -104 0
54 55 93 94 0
84 85 93 94 0
-13 -14 0
-15 -16 0
-17 -18 0
-19 -20 0
-21 -22 0
-23 -24 0
-25 -26 0
-27 -28 0
56 -106 119 120 0
-30 -31 0
-32 -33 0
-34 -35 0
-36 -37 0
-38 -39 0
-40 -41 0
-42 -43 0
-44 -45 0
-46 -47 0
-48 -49 0
34 35 91 92 0
-50 -51 0
-52 -53 0
-54 -55 0
59 60 61 -106 0
-57 -58 0
-60 -61 0
13 14 71 72 0
71 72 116 117 0
-62 -63 0
-64 -65 0
-66 -67 0
-68 -69 0
-19 44 45 86 0
64 65 75 -91 0
-71 -72 0
-73 -74 0
62 63 66 67 0
38 39 62 63 0
13 14 104 105 0
99 112 113 -121 0
-76 -77 0
-78 -79 0
-80 -81 0
-82 -83 0
-84 -85 0
-87 -88 0
-89 -90 0
-91 -92 0
-93 -94 0
-95 -96 0
-97 -98 0
-17 100 101 114 0
-100 -101 0
-102 -103 0
-104 -105 0
10 11 87 88 0
-106 -107 0
-108 -109 0
1 2 97 98 0
-110 -111 0
34 35 112 113 0
-112 -113 0
-64 106 107 115 0
-50 62 63 118 0
-116 -117 0
5 6 46 47 0
-119 -120 0
-121 -122 0
3 4 110 111 0
-1 -15 0
-2 -16 0
68 69 84 85 0
56 -87 119 120 0
-2 -29 0
3 4 19 20 0
-1 -60 0
-2 -61 0
13 14 93 94 0
-1 -93 0
-2 -94 0
10 11 -106 115 0
-1 -97 0
-2 -98 0
3 4 15 16 0
-3 -15 0
-4 -16 0
-3 -19 0
-4 -20 0
1 2 15 16 0
-3 -27 0
-4 -28 0
-3 -62 0
-4 -63 0
56 106 107 -119 0
-3 -110 0
-4 -111 0
50 51 121 122 0
12 21 22 -86 0
-6 -7 0
21 22 100 101 0
-5 -36 0
-6 -37 0
38 39 75 -91 0
-5 -40 0
-6 -41 0
-5 -46 0
-6 -47 0
-5 -48 0
-6 -49 0
-5 -121 0
-6 -122 0
82 83 102 103 0
12 -86 116 117 0
-7 -9 0
32 33 52 53 0
12 -22 116 117 0
-7 -72 0
10 11 19 20 0
56 87 88 -119 0
-9 -29 0
-8 -57 0
-9 -58 0
66 67 112 113 0
-8 -97 0
-9 -98 0
48 49 102 103 0
-10 -19 0
-11 -20 0
23 24 76 77 0
-10 -54 0
-11 -55 0
-10 -80 0
-11 -81 0
60 61 89 90 0
-10 -87 0
-11 -88 0
23 24 32 33 0
-10 -104 0
-11 -105 0
10 11 -64 115 0
-10 106 107 115 0
-11 -114 0
12 -19 -22 86 0
-34 62 63 118 0
-11 -115 0
36 37 112 113 0
-12 -21 0
1 2 -8 29 0
56 -87 106 107 0
8 9 29 -104 0
-12 -116 0
-1 8 9 29 0
30 31 54 55 0
-21 70 73 74 0
84 85 106 107 0
70 73 74 -108 0
-13 -71 0
-14 -72 0
99 -112 121 122 0
-13 -93 0
-14 -94 0
38 39 -64 75 0
-13 -104 0
-14 -105 0
82 83 93 94 0
-13 -108 0
-14 -109 0
25 26 110 111 0
-15 -36 0
-16 -37 0
25 26 50 51 0
-15 -106 0
-16 -107 0
-15 -121 0
-16 -122 0
13 14 108 109 0
-17 -64 0
-18 -65 0
54 55 97 98 0
-17 -78 0
-18 -79 0
-17 -108 0
-18 -109 0
64 65 -106 115 0
-18 -114 0
68 69 95 96 0
12 -44 86 -117 0
-20 -86 0
38 39 73 74 0
-19 -89 0
-20 -90 0
-21 -48 0
-22 -49 0
32 33 80 81 0
-12 44 45 86 0
70 -73 108 109 0
23 24 57 58 0
-38 64 65 75 0
-22 -70 0
30 31 110 111 0
-21 -100 0
-22 -101 0
5 6 36 37 0
-23 -32 0
-24 -33 0
23 24 38 39 0
-23 -38 0
-24 -39 0
27 28 38 39 0
-23 -57 0
-24 -58 0
95 96 119 120 0
-23 -76 0
-24 -77 0
30 31 121 122 0
-23 -78 0
-24 -79 0
23 24 121 122 0
-23 -110 0
-24 -111 0
-57 99 121 122 0
-23 -121 0
-24 -122 0
3 4 27 28 0
-25 -48 0
-26 -49 0
25 26 48 49 0
-25 -50 0
-26 -51 0
27 28 100 101 0
-25 -82 0
-26 -83 0
27 28 46 47 0
-25 -89 0
-26 -90 0
21 22 48 49 0
-25 -110 0
-26 -111 0
-27 -38 0
-28 -39 0
-27 -46 0
-28 -47 0
21 22 70 -73 0
-28 -59 0
-27 -100 0
-28 -101 0
93 94 95 96 0
56 87 88 -106 0
-29 -105 0
91 92 112 113 0
-30 -54 0
-31 -55 0
76 77 84 85 0
-30 -76 0
-31 -77 0
60 61 102 103 0
-30 -110 0
-31 -111 0
8 9 57 58 0
-30 -121 0
-31 -122 0
36 37 116 117 0
-32 -34 0
-33 -35 0
15 16 36 37 0
-32 -42 0
-33 -43 0
1 2 60 61 0
-32 -44 0
-33 -45 0
76 77 102 103 0
-32 -52 0
-33 -53 0
-32 -80 0
-33 -81 0
34 35 54 55 0
-34 -54 0
-35 -55 0
50 51 66 67 0
-34 -60 0
-35 -61 0
17 18 78 79 0
-34 -68 0
-35 -69 0
19 20 -44 86 0
-34 -80 0
-35 -81 0
8 9 97 98 0
-34 -91 0
-35 -92 0
32 33 34 35 0
-34 -112 0
-35 -113 0
12 -22 -44 86 0
-35 -118 0
5 6 40 41 0
-36 -48 0
-37 -49 0
40 41 116 117 0
-36 -93 0
-37 -94 0
40 41 100 101 0
-36 -112 0
-37 -113 0
59 -60 106 107 0
-36 -116 0
-37 -117 0
-38 -42 0
-39 -43 0
38 39 42 43 0
-38 -62 0
-39 -63 0
32 33 42 43 0
-38 -73 0
-39 -74 0
42 43 66 67 0
104 105 121 122 0
7 8 9 -71 0
-57 99 113 0
-39 -75 0
64 65 119 120 0
-40 -73 0
-41 -74 0
10 11 54 55 0
-40 -78 0
-41 -79 0
-40 -97 0
-41 -98 0
21 22 70 -108 0
-40 -100 0
-41 -101 0
-40 -116 0
-41 -117 0
93 94 104 105 0
-42 -52 0
-43 -53 0
25 26 82 83 0
-42 -66 0
-43 -67 0
-21 70 108 109 0
25 26 89 90 0
-42 -87 0
-43 -88 0
-44 -57 0
-45 -58 0
15 16 121 122 0
-45 -86 0
-44 -95 0
-45 -96 0
1 2 93 94 0
-46 -73 0
-47 -74 0
-46 -104 0
-47 -105 0
76 77 108 109 0
-48 -64 0
-49 -65 0
19 20 89 90 0
-48 -87 0
-49 -88 0
15 16 106 107 0
-48 -102 0
-49 -103 0
62 63 84 85 0
-1 29 104 105 0
71 72 84 85 0
-8 29 104 105 0
40 41 73 74 0
-50 -66 0
-51 -67 0
-12 19 20 86 0
-51 -118 0
36 37 48 49 0
-50 -121 0
-51 -122 0
5 6 48 49 0
-52 -54 0
-53 -55 0
54 55 62 63 0
-52 -116 0
-53 -117 0
-54 -62 0
-55 -63 0
10 11 104 105 0
-54 -71 0
-55 -72 0
71 72 73 74 0
-54 -93 0
-55 -94 0
-5 7 71 72 0
-54 -97 0
-55 -98 0
34 35 -50 118 0
-27 59 60 61 0
-56 -88 0
10 11 -17 114 0
27 28 59 -106 0
-56 -107 0
27 28 59 -60 0
-56 -120 0
42 43 87 88 0
7 -8 71 72 0
-5 7 8 9 0
-57 -82 0
-58 -83 0
40 41 97 98 0
-10 100 101 114 0
-58 -99 0
-57 -112 0
-58 -113 0
48 49 64 65 0
-59 -61 0
48 49 87 88 0
-59 -107 0
34 35 80 81 0
-60 -89 0
-61 -90 0
36 37 93 94 0
-60 -102 0
-61 -103 0
32 33 44 45 0
68 69 82 83 0
-62 -66 0
-63 -67 0
71 72 119 120 0
-62 -84 0
-63 -85 0
-63 -118 0
-27 59 106 107 0
-64 -66 0
-65 -67 0
34 35 60 61 0
57 58 99 -121 0
-65 -75 0
34 35 68 69 0
50 51 -62 118 0
-65 -115 0
12 -19 86 -117 0
-64 -119 0
-65 -120 0
5 6 121 122 0
-66 -112 0
-67 -113 0
34 35 -62 118 0
84 85 89 90 0
-68 -82 0
-69 -83 0
64 65 66 67 0
-68 -84 0
-69 -85 0
5 6 7 -71 0
-68 -95 0
-69 -96 0
30 31 76 77 0
-64 75 91 92 0
-70 -74 0
42 43 52 53 0
-38 75 91 92 0
-70 -109 0
102 103 104 105 0
-71 -73 0
-72 -74 0
46 47 104 105 0
-71 -84 0
-72 -85 0
-71 -116 0
-72 -117 0
-71 -119 0
-72 -120 0
119 120 121 122 0
-73 -78 0
-74 -79 0
3 4 62 63 0
58 99 -112 0
-75 -92 0
87 88 95 96 0
-76 -84 0
-77 -85 0
44 45 95 96 0
-76 -102 0
-77 -103 0
52 53 116 117 0
-76 -108 0
-77 -109 0
91 92 95 96 0
-76 -112 0
-77 -113 0
52 53 54 55 0
-80 -106 0
-81 -107 0
10 11 -100 114 0
-82 -93 0
-83 -94 0
57 58 82 83 0
-82 -102 0
-83 -103 0
89 90 108 109 0
-84 -89 0
-85 -90 0
-84 -93 0
-85 -94 0
10 11 80 81 0
-84 -106 0
-85 -107 0
40 41 78 79 0
-87 -95 0
-88 -96 0
17 18 108 109 0
-89 -108 0
-90 -109 0
73 74 78 79 0
-91 -95 0
-92 -96 0
17 18 64 65 0
-91 -112 0
-92 -113 0
-93 -95 0
-94 -96 0
57 58 112 113 0
-93 -104 0
-94 -105 0
44 45 57 58 0
-95 -119 0
-96 -120 0
46 47 73 74 0
17 18 -100 114 0
-99 -113 0
23 24 110 111 0
-10 17 18 114 0
-99 -122 0
23 24 78 79 0
-10 64 65 115 0
-101 -114 0
80 81 106 107 0
-102 -104 0
-103 -105 0
76 77 112 113 0
-104 -121 0
-105 -122 0
54 55 71 72 0
-34 50 51 118 0
-107 -115 0
5 6 7 -8 0
-119 -121 0
-120 -122 0
